12° run output:
{
    "Function": "ClusterB500.tsp",
    "Problem dimension": [
        159,
        433,
        166,
        152,
        219,
        389,
        117,
        221,
        318,
        33,
        22,
        423,
        156,
        397,
        197,
        413,
        357,
        123,
        490,
        450,
        266,
        299,
        312,
        27,
        96,
        86,
        331,
        245,
        115,
        329,
        497,
        316,
        41,
        5,
        332,
        432,
        374,
        47,
        451,
        157,
        65,
        267,
        74,
        264,
        453,
        383,
        183,
        283,
        498,
        424,
        175,
        430,
        420,
        176,
        234,
        385,
        240,
        211,
        58,
        48,
        452,
        367,
        407,
        348,
        271,
        20,
        276,
        256,
        282,
        258,
        190,
        347,
        294,
        39,
        313,
        408,
        253,
        103,
        224,
        285,
        233,
        81,
        321,
        104,
        229,
        481,
        343,
        84,
        55,
        143,
        492,
        417,
        8,
        70,
        288,
        17,
        460,
        170,
        12,
        97,
        181,
        172,
        107,
        261,
        395,
        216,
        249,
        0,
        278,
        401,
        244,
        209,
        443,
        191,
        461,
        296,
        339,
        409,
        305,
        148,
        137,
        38,
        77,
        483,
        426,
        75,
        471,
        194,
        470,
        225,
        456,
        136,
        464,
        232,
        188,
        40,
        496,
        122,
        354,
        373,
        236,
        228,
        378,
        100,
        231,
        14,
        273,
        465,
        62,
        257,
        265,
        24,
        344,
        145,
        472,
        134,
        189,
        119,
        485,
        289,
        394,
        239,
        307,
        368,
        260,
        112,
        250,
        118,
        139,
        199,
        60,
        398,
        349,
        163,
        85,
        88,
        446,
        167,
        222,
        419,
        480,
        345,
        388,
        108,
        160,
        298,
        390,
        201,
        207,
        6,
        164,
        293,
        7,
        10,
        463,
        434,
        52,
        337,
        182,
        473,
        435,
        462,
        369,
        44,
        410,
        215,
        428,
        402,
        3,
        162,
        387,
        83,
        436,
        241,
        205,
        277,
        28,
        268,
        120,
        1,
        290,
        438,
        218,
        125,
        302,
        150,
        238,
        403,
        153,
        116,
        494,
        427,
        414,
        405,
        208,
        262,
        133,
        68,
        467,
        399,
        26,
        441,
        213,
        252,
        35,
        458,
        360,
        220,
        106,
        146,
        141,
        192,
        336,
        314,
        319,
        210,
        92,
        359,
        21,
        279,
        393,
        370,
        36,
        50,
        223,
        353,
        338,
        499,
        179,
        144,
        203,
        459,
        371,
        269,
        255,
        396,
        235,
        94,
        437,
        135,
        69,
        375,
        130,
        320,
        82,
        51,
        99,
        350,
        380,
        158,
        98,
        429,
        29,
        110,
        140,
        57,
        89,
        475,
        147,
        342,
        384,
        362,
        168,
        34,
        127,
        246,
        468,
        287,
        439,
        212,
        49,
        392,
        445,
        226,
        477,
        243,
        2,
        489,
        54,
        109,
        286,
        311,
        184,
        155,
        474,
        406,
        421,
        53,
        482,
        292,
        418,
        361,
        272,
        13,
        32,
        45,
        297,
        185,
        476,
        178,
        444,
        19,
        263,
        327,
        173,
        376,
        230,
        227,
        274,
        78,
        204,
        114,
        351,
        217,
        391,
        455,
        15,
        281,
        87,
        59,
        340,
        248,
        18,
        356,
        442,
        202,
        449,
        280,
        381,
        177,
        25,
        352,
        431,
        308,
        454,
        484,
        400,
        169,
        16,
        71,
        372,
        284,
        200,
        251,
        315,
        247,
        195,
        323,
        151,
        11,
        105,
        132,
        479,
        131,
        447,
        102,
        154,
        30,
        404,
        310,
        121,
        486,
        411,
        324,
        149,
        80,
        46,
        291,
        303,
        466,
        73,
        124,
        214,
        333,
        95,
        448,
        129,
        304,
        174,
        237,
        301,
        113,
        101,
        43,
        72,
        377,
        488,
        365,
        355,
        325,
        90,
        330,
        31,
        335,
        259,
        126,
        334,
        457,
        363,
        478,
        63,
        61,
        171,
        300,
        196,
        487,
        469,
        309,
        306,
        91,
        295,
        382,
        275,
        322,
        180,
        326,
        4,
        346,
        56,
        328,
        341,
        128,
        416,
        64,
        93,
        187,
        9,
        415,
        317,
        493,
        161,
        142,
        206,
        111,
        364,
        379,
        37,
        254,
        422,
        425,
        165,
        76,
        440,
        193,
        386,
        42,
        270,
        412,
        358,
        23,
        79,
        198,
        186,
        66,
        366,
        242,
        138,
        67,
        491,
        495
    ],
    "Global Optimum": 0,
    "Algorithm": "Genetic algorithm",
    "Parameters": {
        "population": 30,
        "offspring": 30,
        "mutation probability": 0.002,
        "crossover probability": 0.9
    },
    "Fitness": 597813,
    "Solution": [
        159,
        433,
        166,
        152,
        219,
        389,
        117,
        221,
        318,
        33,
        22,
        423,
        156,
        397,
        197,
        413,
        357,
        123,
        490,
        450,
        266,
        299,
        312,
        27,
        96,
        86,
        331,
        245,
        115,
        329,
        497,
        316,
        41,
        5,
        332,
        432,
        374,
        47,
        451,
        157,
        65,
        267,
        74,
        264,
        453,
        383,
        183,
        283,
        498,
        424,
        175,
        430,
        420,
        176,
        234,
        385,
        240,
        211,
        58,
        48,
        452,
        367,
        407,
        348,
        271,
        20,
        276,
        256,
        282,
        258,
        190,
        347,
        294,
        39,
        313,
        408,
        253,
        103,
        224,
        285,
        233,
        81,
        321,
        104,
        229,
        481,
        343,
        84,
        55,
        143,
        492,
        417,
        8,
        70,
        288,
        17,
        460,
        170,
        12,
        97,
        181,
        172,
        107,
        261,
        395,
        216,
        249,
        0,
        278,
        401,
        244,
        209,
        443,
        191,
        461,
        296,
        339,
        409,
        305,
        148,
        137,
        38,
        77,
        483,
        426,
        75,
        471,
        194,
        470,
        225,
        456,
        136,
        464,
        232,
        188,
        40,
        496,
        122,
        354,
        373,
        236,
        228,
        378,
        100,
        231,
        14,
        273,
        465,
        62,
        257,
        265,
        24,
        344,
        145,
        472,
        134,
        189,
        119,
        485,
        289,
        394,
        239,
        307,
        368,
        260,
        112,
        250,
        118,
        139,
        199,
        60,
        398,
        349,
        163,
        85,
        88,
        446,
        167,
        222,
        419,
        480,
        345,
        388,
        108,
        160,
        298,
        390,
        201,
        207,
        6,
        164,
        293,
        7,
        10,
        463,
        434,
        52,
        337,
        182,
        473,
        435,
        462,
        369,
        44,
        410,
        215,
        428,
        402,
        3,
        162,
        387,
        83,
        436,
        241,
        205,
        277,
        28,
        268,
        120,
        1,
        290,
        438,
        218,
        125,
        302,
        150,
        238,
        403,
        153,
        116,
        494,
        427,
        414,
        405,
        208,
        262,
        133,
        68,
        467,
        399,
        26,
        441,
        213,
        252,
        35,
        458,
        360,
        220,
        106,
        146,
        141,
        192,
        336,
        314,
        319,
        210,
        92,
        359,
        21,
        279,
        393,
        370,
        36,
        50,
        223,
        353,
        338,
        499,
        179,
        144,
        203,
        459,
        371,
        269,
        255,
        396,
        235,
        94,
        437,
        135,
        69,
        375,
        130,
        320,
        82,
        51,
        99,
        350,
        380,
        158,
        98,
        429,
        29,
        110,
        140,
        57,
        89,
        475,
        147,
        342,
        384,
        362,
        168,
        34,
        127,
        246,
        468,
        287,
        439,
        212,
        49,
        392,
        445,
        226,
        477,
        243,
        2,
        489,
        54,
        109,
        286,
        311,
        184,
        155,
        474,
        406,
        421,
        53,
        482,
        292,
        418,
        361,
        272,
        13,
        32,
        45,
        297,
        185,
        476,
        178,
        444,
        19,
        263,
        327,
        173,
        376,
        230,
        227,
        274,
        78,
        204,
        114,
        351,
        217,
        391,
        455,
        15,
        281,
        87,
        59,
        340,
        248,
        18,
        356,
        442,
        202,
        449,
        280,
        381,
        177,
        25,
        352,
        431,
        308,
        454,
        484,
        400,
        169,
        16,
        71,
        372,
        284,
        200,
        251,
        315,
        247,
        195,
        323,
        151,
        11,
        105,
        132,
        479,
        131,
        447,
        102,
        154,
        30,
        404,
        310,
        121,
        486,
        411,
        324,
        149,
        80,
        46,
        291,
        303,
        466,
        73,
        124,
        214,
        333,
        95,
        448,
        129,
        304,
        174,
        237,
        301,
        113,
        101,
        43,
        72,
        377,
        488,
        365,
        355,
        325,
        90,
        330,
        31,
        335,
        259,
        126,
        334,
        457,
        363,
        478,
        63,
        61,
        171,
        300,
        196,
        487,
        469,
        309,
        306,
        91,
        295,
        382,
        275,
        322,
        180,
        326,
        4,
        346,
        56,
        328,
        341,
        128,
        416,
        64,
        93,
        187,
        9,
        415,
        317,
        493,
        161,
        142,
        206,
        111,
        364,
        379,
        37,
        254,
        422,
        425,
        165,
        76,
        440,
        193,
        386,
        42,
        270,
        412,
        358,
        23,
        79,
        198,
        186,
        66,
        366,
        242,
        138,
        67,
        491,
        495
    ],
    "Nb of functions evaluations": 200010,
    "Computational time in seconds": 1070.908352136612,
    "Stopping criterion in evaluations": 200000
}